\ENCODING=ISO-8859-1
\Problem name: att48

Minimize
 obj1: 0 x(1,1) + 4726.65314995717 x(1,2) + 1204.34920185136 x(1,3)
       + 6362.50210216075 x(1,4) + 4726.65314995717 x(2,1) + 0 x(2,2)
       + 3587.42316990901 x(2,3) + 2011.66224799294 x(2,4)
       + 1204.34920185136 x(3,1) + 3587.42316990901 x(3,2) + 0 x(3,3)
       + 5162.02770236658 x(3,4) + 6362.50210216075 x(4,1)
       + 2011.66224799294 x(4,2) + 5162.02770236658 x(4,3) + 0 x(4,4) + 0 u(1)
Subject To
 degree(1)#0:  x(2,1) + x(3,1) + x(4,1)  = 1
 degree(2)#1:  x(1,2) + x(3,2) + x(4,2)  = 1
 degree(3)#2:  x(1,3) + x(2,3) + x(4,3)  = 1
 degree(4)#3:  x(1,4) + x(2,4) + x(3,4)  = 1
 degree(1)#4:  x(1,2) + x(1,3) + x(1,4)  = 1
 degree(2)#5:  x(2,1) + x(2,3) + x(2,4)  = 1
 degree(3)#6:  x(3,1) + x(3,2) + x(3,4)  = 1
 degree(4)#7:  x(4,1) + x(4,2) + x(4,3)  = 1
 degree(2)#8:  5 x(3,2) - u(2) + u(3) <= 4
 degree(2)#9:  5 x(4,2) - u(2) + u(4) <= 4
 degree(3)#10: 5 x(2,3) + u(2) - u(3) <= 4
 degree(3)#11: 5 x(4,3) - u(3) + u(4) <= 4
 degree(4)#12: 5 x(2,4) + u(2) - u(4) <= 4
 degree(4)#13: 5 x(3,4) + u(3) - u(4) <= 4
Bounds
      x(1,1) = 0
 0 <= x(1,2) <= 1
 0 <= x(1,3) <= 1
 0 <= x(1,4) <= 1
 0 <= x(2,1) <= 1
      x(2,2) = 0
 0 <= x(2,3) <= 1
 0 <= x(2,4) <= 1
 0 <= x(3,1) <= 1
 0 <= x(3,2) <= 1
      x(3,3) = 0
 0 <= x(3,4) <= 1
 0 <= x(4,1) <= 1
 0 <= x(4,2) <= 1
 0 <= x(4,3) <= 1
      x(4,4) = 0
 0 <= u(1) <= 3
 0 <= u(2) <= 3
 0 <= u(3) <= 3
 0 <= u(4) <= 3
Binaries
 x(1,1)  x(1,2)  x(1,3)  x(1,4)  x(2,1)  x(2,2)  x(2,3)  x(2,4)  x(3,1) 
 x(3,2)  x(3,3)  x(3,4)  x(4,1)  x(4,2)  x(4,3)  x(4,4) 
End
